0 0 0 0
0 1 0 0
0 2 0 0
0 3 0 0
0 4 0 4
0 5 0 4
0 6 0 5
0 7 0 6
0 8 0 11
0 9 0 5
0 10 0 11
0 11 0 13
0 12 0 12
0 13 0 11
0 14 0 13
0 15 0 11
0 16 0 15
0 17 0 11
0 18 0 21
0 19 0 20
0 20 0 28
0 21 0 15
0 22 0 14
0 23 0 6
0 24 0 19
0 25 0 27
0 26 0 16
0 27 0 52
0 28 0 46
0 29 0 5
0 30 0 68
0 31 0 23
0 32 0 36
0 33 0 26
0 34 0 14
0 35 0 8
0 36 0 20
0 37 0 21
0 38 0 56
0 39 0 20
0 40 0 43
0 41 0 26
0 42 0 24
0 43 0 52
0 44 0 19
0 45 0 31
0 46 0 39
0 47 0 30
0 48 0 43
0 49 0 31
0 50 0 42
0 51 0 33
0 52 0 71
0 53 0 59
0 54 0 26
0 55 0 30
0 56 0 33
0 57 0 46
0 58 0 36
0 59 0 75
0 60 0 63
0 61 0 49
0 62 0 55
0 63 0 99
0 64 0 80
0 65 0 54
0 66 0 76
0 67 0 36
0 68 0 50
0 69 0 59
0 70 0 60
0 71 0 67
0 72 0 43
0 73 0 78
0 74 0 61
0 75 0 35
0 76 0 36
0 77 0 59
0 78 0 54
0 79 0 70
0 80 0 68
0 81 0 48
0 82 0 83
0 83 0 80
0 84 0 60
0 85 0 64
0 86 0 68
0 87 0 95
0 88 0 50
0 89 0 70
0 90 0 70
0 91 0 69
0 92 0 43
0 93 0 64
0 94 0 72
0 95 0 75
0 96 0 75
0 97 0 91
0 98 0 93
0 99 0 89
0 100 0 77
0 101 0 96
0 102 0 86
0 103 0 79
0 104 0 77
0 105 0 81
0 106 0 89
0 107 0 84
0 108 0 85
0 109 0 86
0 110 0 82
0 111 0 85
0 112 0 98
0 113 0 91
0 114 0 93
0 115 0 99
0 116 0 95
0 117 0 103
0 118 0 107
0 119 0 100
0 120 0 103
0 121 0 109
